423822142 -1 0
128149865 -2 0
259600826 -3 0
238643588 4 0
462588103 -5 0
285229802 4 0
205649801 6 0
157914479 7 0
187293402 8 0
338159228 8 0
1 -7 9 0
342878170 -5 0
274952772 6 0
250937052 10 0
88123604 -11 0
286728264 -1 0
153199475 -12 0
212159274 4 0
